p cnf 788 2307
-3 4 51 0
3 4 -51 0
-3 -4 -51 0
3 -4 51 0
6 7 52 0
-6 7 -52 0
6 -7 -52 0
-6 -7 52 0
8 9 53 0
-8 9 -53 0
8 -9 -53 0
-8 -9 53 0
-11 -12 54 0
11 -12 -54 0
-11 12 -54 0
11 12 54 0
14 17 55 0
-14 17 -55 0
14 -17 -55 0
-14 -17 55 0
18 20 56 0
-18 20 -56 0
18 -20 -56 0
-18 -20 56 0
21 22 57 0
-21 22 -57 0
21 -22 -57 0
-21 -22 57 0
23 -24 58 0
-23 -24 -58 0
23 24 -58 0
-23 24 58 0
27 28 59 0
-27 28 -59 0
27 -28 -59 0
-27 -28 59 0
-31 32 60 0
31 32 -60 0
-31 -32 -60 0
31 -32 60 0
33 34 61 0
-33 34 -61 0
33 -34 -61 0
-33 -34 61 0
36 -38 62 0
-36 -38 -62 0
36 38 -62 0
-36 38 62 0
44 -46 63 0
-44 -46 -63 0
44 46 -63 0
-44 46 63 0
50 -51 64 0
-50 -51 -64 0
50 51 -64 0
-50 51 64 0
52 -53 65 0
-52 -53 -65 0
52 53 -65 0
-52 53 65 0
54 -55 66 0
-54 -55 -66 0
54 55 -66 0
-54 55 66 0
56 -57 67 0
-56 -57 -67 0
56 57 -67 0
-56 57 67 0
58 -59 68 0
-58 -59 -68 0
58 59 -68 0
-58 59 68 0
60 -61 69 0
-60 -61 -69 0
60 61 -69 0
-60 61 69 0
62 -63 70 0
-62 -63 -70 0
62 63 -70 0
-62 63 70 0
64 -65 71 0
-64 -65 -71 0
64 65 -71 0
-64 65 71 0
66 -67 72 0
-66 -67 -72 0
66 67 -72 0
-66 67 72 0
68 -69 73 0
-68 -69 -73 0
68 69 -73 0
-68 69 73 0
70 -71 74 0
-70 -71 -74 0
70 71 -74 0
-70 71 74 0
72 -73 75 0
-72 -73 -75 0
72 73 -75 0
-72 73 75 0
74 75 0
-74 -75 0
1 -2 76 0
-1 -2 -76 0
1 2 -76 0
-1 2 76 0
3 -5 77 0
-3 -5 -77 0
3 5 -77 0
-3 5 77 0
-9 -10 78 0
9 -10 -78 0
-9 10 -78 0
9 10 78 0
-12 -13 79 0
12 -13 -79 0
-12 13 -79 0
12 13 79 0
-15 17 80 0
15 17 -80 0
-15 -17 -80 0
15 -17 80 0
19 -20 81 0
-19 -20 -81 0
19 20 -81 0
-19 20 81 0
24 -25 82 0
-24 -25 -82 0
24 25 -82 0
-24 25 82 0
27 31 83 0
-27 31 -83 0
27 -31 -83 0
-27 -31 83 0
-33 34 84 0
33 34 -84 0
-33 -34 -84 0
33 -34 84 0
35 38 85 0
-35 38 -85 0
35 -38 -85 0
-35 -38 85 0
40 -41 86 0
-40 -41 -86 0
40 41 -86 0
-40 41 86 0
75 -76 87 0
-75 -76 -87 0
75 76 -87 0
-75 76 87 0
77 -78 88 0
-77 -78 -88 0
77 78 -88 0
-77 78 88 0
79 -80 89 0
-79 -80 -89 0
79 80 -89 0
-79 80 89 0
81 -82 90 0
-81 -82 -90 0
81 82 -90 0
-81 82 90 0
83 -84 91 0
-83 -84 -91 0
83 84 -91 0
-83 84 91 0
85 -86 92 0
-85 -86 -92 0
85 86 -92 0
-85 86 92 0
87 -88 93 0
-87 -88 -93 0
87 88 -93 0
-87 88 93 0
89 -90 94 0
-89 -90 -94 0
89 90 -94 0
-89 90 94 0
91 -92 95 0
-91 -92 -95 0
91 92 -95 0
-91 92 95 0
-93 -94 95 0
93 -94 -95 0
-93 94 -95 0
93 94 95 0
3 -4 96 0
-3 -4 -96 0
3 4 -96 0
-3 4 96 0
5 -7 97 0
-5 -7 -97 0
5 7 -97 0
-5 7 97 0
9 10 98 0
-9 10 -98 0
9 -10 -98 0
-9 -10 98 0
12 15 99 0
-12 15 -99 0
12 -15 -99 0
-12 -15 99 0
18 -21 100 0
-18 -21 -100 0
18 21 -100 0
-18 21 100 0
-22 23 101 0
22 23 -101 0
-22 -23 -101 0
22 -23 101 0
27 -28 102 0
-27 -28 -102 0
27 28 -102 0
-27 28 102 0
-29 -32 103 0
29 -32 -103 0
-29 32 -103 0
29 32 103 0
-33 34 104 0
33 34 -104 0
-33 -34 -104 0
33 -34 104 0
-36 37 105 0
36 37 -105 0
-36 -37 -105 0
36 -37 105 0
-38 -39 106 0
38 -39 -106 0
-38 39 -106 0
38 39 106 0
-41 -43 107 0
41 -43 -107 0
-41 43 -107 0
41 43 107 0
44 -45 108 0
-44 -45 -108 0
44 45 -108 0
-44 45 108 0
-47 48 109 0
47 48 -109 0
-47 -48 -109 0
47 -48 109 0
96 -97 110 0
-96 -97 -110 0
96 97 -110 0
-96 97 110 0
98 -99 111 0
-98 -99 -111 0
98 99 -111 0
-98 99 111 0
100 -101 112 0
-100 -101 -112 0
100 101 -112 0
-100 101 112 0
102 -103 113 0
-102 -103 -113 0
102 103 -113 0
-102 103 113 0
104 -105 114 0
-104 -105 -114 0
104 105 -114 0
-104 105 114 0
106 -107 115 0
-106 -107 -115 0
106 107 -115 0
-106 107 115 0
108 -109 116 0
-108 -109 -116 0
108 109 -116 0
-108 109 116 0
110 -111 117 0
-110 -111 -117 0
110 111 -117 0
-110 111 117 0
112 -113 118 0
-112 -113 -118 0
112 113 -118 0
-112 113 118 0
114 -115 119 0
-114 -115 -119 0
114 115 -119 0
-114 115 119 0
116 -117 120 0
-116 -117 -120 0
116 117 -120 0
-116 117 120 0
118 -119 121 0
-118 -119 -121 0
118 119 -121 0
-118 119 121 0
120 121 0
-120 -121 0
-2 -3 122 0
2 -3 -122 0
-2 3 -122 0
2 3 122 0
-6 7 123 0
6 7 -123 0
-6 -7 -123 0
6 -7 123 0
8 -12 124 0
-8 -12 -124 0
8 12 -124 0
-8 12 124 0
-14 15 125 0
14 15 -125 0
-14 -15 -125 0
14 -15 125 0
16 22 126 0
-16 22 -126 0
16 -22 -126 0
-16 -22 126 0
24 -25 127 0
-24 -25 -127 0
24 25 -127 0
-24 25 127 0
-27 -31 128 0
27 -31 -128 0
-27 31 -128 0
27 31 128 0
-34 -36 129 0
34 -36 -129 0
-34 36 -129 0
34 36 129 0
37 38 130 0
-37 38 -130 0
37 -38 -130 0
-37 -38 130 0
-41 -43 131 0
41 -43 -131 0
-41 43 -131 0
41 43 131 0
45 46 132 0
-45 46 -132 0
45 -46 -132 0
-45 -46 132 0
-47 48 133 0
47 48 -133 0
-47 -48 -133 0
47 -48 133 0
121 -122 134 0
-121 -122 -134 0
121 122 -134 0
-121 122 134 0
123 -124 135 0
-123 -124 -135 0
123 124 -135 0
-123 124 135 0
125 -126 136 0
-125 -126 -136 0
125 126 -136 0
-125 126 136 0
127 -128 137 0
-127 -128 -137 0
127 128 -137 0
-127 128 137 0
129 -130 138 0
-129 -130 -138 0
129 130 -138 0
-129 130 138 0
131 -132 139 0
-131 -132 -139 0
131 132 -139 0
-131 132 139 0
133 -134 140 0
-133 -134 -140 0
133 134 -140 0
-133 134 140 0
135 -136 141 0
-135 -136 -141 0
135 136 -141 0
-135 136 141 0
137 -138 142 0
-137 -138 -142 0
137 138 -142 0
-137 138 142 0
139 -140 143 0
-139 -140 -143 0
139 140 -143 0
-139 140 143 0
141 -142 144 0
-141 -142 -144 0
141 142 -144 0
-141 142 144 0
143 144 0
-143 -144 0
1 2 145 0
-1 2 -145 0
1 -2 -145 0
-1 -2 145 0
5 6 146 0
-5 6 -146 0
5 -6 -146 0
-5 -6 146 0
-7 -8 147 0
7 -8 -147 0
-7 8 -147 0
7 8 147 0
-10 -11 148 0
10 -11 -148 0
-10 11 -148 0
10 11 148 0
12 15 149 0
-12 15 -149 0
12 -15 -149 0
-12 -15 149 0
16 -17 150 0
-16 -17 -150 0
16 17 -150 0
-16 17 150 0
-18 19 151 0
18 19 -151 0
-18 -19 -151 0
18 -19 151 0
21 22 152 0
-21 22 -152 0
21 -22 -152 0
-21 -22 152 0
-30 -31 153 0
30 -31 -153 0
-30 31 -153 0
30 31 153 0
32 -40 154 0
-32 -40 -154 0
32 40 -154 0
-32 40 154 0
42 -43 155 0
-42 -43 -155 0
42 43 -155 0
-42 43 155 0
-44 46 156 0
44 46 -156 0
-44 -46 -156 0
44 -46 156 0
144 -145 157 0
-144 -145 -157 0
144 145 -157 0
-144 145 157 0
146 -147 158 0
-146 -147 -158 0
146 147 -158 0
-146 147 158 0
148 -149 159 0
-148 -149 -159 0
148 149 -159 0
-148 149 159 0
150 -151 160 0
-150 -151 -160 0
150 151 -160 0
-150 151 160 0
152 -153 161 0
-152 -153 -161 0
152 153 -161 0
-152 153 161 0
154 -155 162 0
-154 -155 -162 0
154 155 -162 0
-154 155 162 0
156 -157 163 0
-156 -157 -163 0
156 157 -163 0
-156 157 163 0
158 -159 164 0
-158 -159 -164 0
158 159 -164 0
-158 159 164 0
160 -161 165 0
-160 -161 -165 0
160 161 -165 0
-160 161 165 0
162 -163 166 0
-162 -163 -166 0
162 163 -166 0
-162 163 166 0
164 -165 167 0
-164 -165 -167 0
164 165 -167 0
-164 165 167 0
166 167 0
-166 -167 0
-2 -3 168 0
2 -3 -168 0
-2 3 -168 0
2 3 168 0
4 5 169 0
-4 5 -169 0
4 -5 -169 0
-4 -5 169 0
6 -7 170 0
-6 -7 -170 0
6 7 -170 0
-6 7 170 0
-10 -11 171 0
10 -11 -171 0
-10 11 -171 0
10 11 171 0
12 -13 172 0
-12 -13 -172 0
12 13 -172 0
-12 13 172 0
14 -16 173 0
-14 -16 -173 0
14 16 -173 0
-14 16 173 0
-19 -20 174 0
19 -20 -174 0
-19 20 -174 0
19 20 174 0
23 24 175 0
-23 24 -175 0
23 -24 -175 0
-23 -24 175 0
-25 -26 176 0
25 -26 -176 0
-25 26 -176 0
25 26 176 0
27 29 177 0
-27 29 -177 0
27 -29 -177 0
-27 -29 177 0
32 33 178 0
-32 33 -178 0
32 -33 -178 0
-32 -33 178 0
36 37 179 0
-36 37 -179 0
36 -37 -179 0
-36 -37 179 0
-38 -43 180 0
38 -43 -180 0
-38 43 -180 0
38 43 180 0
47 -49 181 0
-47 -49 -181 0
47 49 -181 0
-47 49 181 0
168 -169 182 0
-168 -169 -182 0
168 169 -182 0
-168 169 182 0
170 -171 183 0
-170 -171 -183 0
170 171 -183 0
-170 171 183 0
172 -173 184 0
-172 -173 -184 0
172 173 -184 0
-172 173 184 0
174 -175 185 0
-174 -175 -185 0
174 175 -185 0
-174 175 185 0
176 -177 186 0
-176 -177 -186 0
176 177 -186 0
-176 177 186 0
178 -179 187 0
-178 -179 -187 0
178 179 -187 0
-178 179 187 0
180 -181 188 0
-180 -181 -188 0
180 181 -188 0
-180 181 188 0
182 -183 189 0
-182 -183 -189 0
182 183 -189 0
-182 183 189 0
184 -185 190 0
-184 -185 -190 0
184 185 -190 0
-184 185 190 0
186 -187 191 0
-186 -187 -191 0
186 187 -191 0
-186 187 191 0
188 -189 192 0
-188 -189 -192 0
188 189 -192 0
-188 189 192 0
190 -191 193 0
-190 -191 -193 0
190 191 -193 0
-190 191 193 0
192 193 0
-192 -193 0
-1 -3 194 0
1 -3 -194 0
-1 3 -194 0
1 3 194 0
-6 -7 195 0
6 -7 -195 0
-6 7 -195 0
6 7 195 0
-8 -9 196 0
8 -9 -196 0
-8 9 -196 0
8 9 196 0
10 11 197 0
-10 11 -197 0
10 -11 -197 0
-10 -11 197 0
-12 15 198 0
12 15 -198 0
-12 -15 -198 0
12 -15 198 0
-18 -19 199 0
18 -19 -199 0
-18 19 -199 0
18 19 199 0
-21 -23 200 0
21 -23 -200 0
-21 23 -200 0
21 23 200 0
-27 28 201 0
27 28 -201 0
-27 -28 -201 0
27 -28 201 0
-32 33 202 0
32 33 -202 0
-32 -33 -202 0
32 -33 202 0
34 36 203 0
-34 36 -203 0
34 -36 -203 0
-34 -36 203 0
38 39 204 0
-38 39 -204 0
38 -39 -204 0
-38 -39 204 0
41 42 205 0
-41 42 -205 0
41 -42 -205 0
-41 -42 205 0
43 44 206 0
-43 44 -206 0
43 -44 -206 0
-43 -44 206 0
-45 46 207 0
45 46 -207 0
-45 -46 -207 0
45 -46 207 0
47 48 208 0
-47 48 -208 0
47 -48 -208 0
-47 -48 208 0
193 -194 209 0
-193 -194 -209 0
193 194 -209 0
-193 194 209 0
195 -196 210 0
-195 -196 -210 0
195 196 -210 0
-195 196 210 0
197 -198 211 0
-197 -198 -211 0
197 198 -211 0
-197 198 211 0
199 -200 212 0
-199 -200 -212 0
199 200 -212 0
-199 200 212 0
201 -202 213 0
-201 -202 -213 0
201 202 -213 0
-201 202 213 0
203 -204 214 0
-203 -204 -214 0
203 204 -214 0
-203 204 214 0
205 -206 215 0
-205 -206 -215 0
205 206 -215 0
-205 206 215 0
207 -208 216 0
-207 -208 -216 0
207 208 -216 0
-207 208 216 0
209 -210 217 0
-209 -210 -217 0
209 210 -217 0
-209 210 217 0
211 -212 218 0
-211 -212 -218 0
211 212 -218 0
-211 212 218 0
213 -214 219 0
-213 -214 -219 0
213 214 -219 0
-213 214 219 0
215 -216 220 0
-215 -216 -220 0
215 216 -220 0
-215 216 220 0
217 -218 221 0
-217 -218 -221 0
217 218 -221 0
-217 218 221 0
219 -220 222 0
-219 -220 -222 0
219 220 -222 0
-219 220 222 0
221 222 0
-221 -222 0
-3 7 223 0
3 7 -223 0
-3 -7 -223 0
3 -7 223 0
9 12 224 0
-9 12 -224 0
9 -12 -224 0
-9 -12 224 0
14 -17 225 0
-14 -17 -225 0
14 17 -225 0
-14 17 225 0
-20 23 226 0
20 23 -226 0
-20 -23 -226 0
20 -23 226 0
25 28 227 0
-25 28 -227 0
25 -28 -227 0
-25 -28 227 0
-29 -30 228 0
29 -30 -228 0
-29 30 -228 0
29 30 228 0
31 32 229 0
-31 32 -229 0
31 -32 -229 0
-31 -32 229 0
-33 34 230 0
33 34 -230 0
-33 -34 -230 0
33 -34 230 0
36 38 231 0
-36 38 -231 0
36 -38 -231 0
-36 -38 231 0
39 41 232 0
-39 41 -232 0
39 -41 -232 0
-39 -41 232 0
43 -44 233 0
-43 -44 -233 0
43 44 -233 0
-43 44 233 0
45 47 234 0
-45 47 -234 0
45 -47 -234 0
-45 -47 234 0
222 -223 235 0
-222 -223 -235 0
222 223 -235 0
-222 223 235 0
224 -225 236 0
-224 -225 -236 0
224 225 -236 0
-224 225 236 0
226 -227 237 0
-226 -227 -237 0
226 227 -237 0
-226 227 237 0
228 -229 238 0
-228 -229 -238 0
228 229 -238 0
-228 229 238 0
230 -231 239 0
-230 -231 -239 0
230 231 -239 0
-230 231 239 0
232 -233 240 0
-232 -233 -240 0
232 233 -240 0
-232 233 240 0
234 -235 241 0
-234 -235 -241 0
234 235 -241 0
-234 235 241 0
236 -237 242 0
-236 -237 -242 0
236 237 -242 0
-236 237 242 0
238 -239 243 0
-238 -239 -243 0
238 239 -243 0
-238 239 243 0
240 -241 244 0
-240 -241 -244 0
240 241 -244 0
-240 241 244 0
242 -243 245 0
-242 -243 -245 0
242 243 -245 0
-242 243 245 0
244 245 0
-244 -245 0
5 -7 246 0
-5 -7 -246 0
5 7 -246 0
-5 7 246 0
8 10 247 0
-8 10 -247 0
8 -10 -247 0
-8 -10 247 0
12 -16 248 0
-12 -16 -248 0
12 16 -248 0
-12 16 248 0
18 20 249 0
-18 20 -249 0
18 -20 -249 0
-18 -20 249 0
21 23 250 0
-21 23 -250 0
21 -23 -250 0
-21 -23 250 0
25 26 251 0
-25 26 -251 0
25 -26 -251 0
-25 -26 251 0
-29 30 252 0
29 30 -252 0
-29 -30 -252 0
29 -30 252 0
32 -33 253 0
-32 -33 -253 0
32 33 -253 0
-32 33 253 0
35 -40 254 0
-35 -40 -254 0
35 40 -254 0
-35 40 254 0
41 -43 255 0
-41 -43 -255 0
41 43 -255 0
-41 43 255 0
44 -45 256 0
-44 -45 -256 0
44 45 -256 0
-44 45 256 0
-47 48 257 0
47 48 -257 0
-47 -48 -257 0
47 -48 257 0
245 -246 258 0
-245 -246 -258 0
245 246 -258 0
-245 246 258 0
247 -248 259 0
-247 -248 -259 0
247 248 -259 0
-247 248 259 0
249 -250 260 0
-249 -250 -260 0
249 250 -260 0
-249 250 260 0
251 -252 261 0
-251 -252 -261 0
251 252 -261 0
-251 252 261 0
253 -254 262 0
-253 -254 -262 0
253 254 -262 0
-253 254 262 0
255 -256 263 0
-255 -256 -263 0
255 256 -263 0
-255 256 263 0
257 -258 264 0
-257 -258 -264 0
257 258 -264 0
-257 258 264 0
259 -260 265 0
-259 -260 -265 0
259 260 -265 0
-259 260 265 0
261 -262 266 0
-261 -262 -266 0
261 262 -266 0
-261 262 266 0
263 -264 267 0
-263 -264 -267 0
263 264 -267 0
-263 264 267 0
265 -266 268 0
-265 -266 -268 0
265 266 -268 0
-265 266 268 0
267 268 0
-267 -268 0
1 -3 269 0
-1 -3 -269 0
1 3 -269 0
-1 3 269 0
4 -6 270 0
-4 -6 -270 0
4 6 -270 0
-4 6 270 0
7 -8 271 0
-7 -8 -271 0
7 8 -271 0
-7 8 271 0
-10 -11 272 0
10 -11 -272 0
-10 11 -272 0
10 11 272 0
-13 15 273 0
13 15 -273 0
-13 -15 -273 0
13 -15 273 0
-16 21 274 0
16 21 -274 0
-16 -21 -274 0
16 -21 274 0
-28 33 275 0
28 33 -275 0
-28 -33 -275 0
28 -33 275 0
34 35 276 0
-34 35 -276 0
34 -35 -276 0
-34 -35 276 0
-37 38 277 0
37 38 -277 0
-37 -38 -277 0
37 -38 277 0
-40 -41 278 0
40 -41 -278 0
-40 41 -278 0
40 41 278 0
-43 -48 279 0
43 -48 -279 0
-43 48 -279 0
43 48 279 0
269 -270 280 0
-269 -270 -280 0
269 270 -280 0
-269 270 280 0
271 -272 281 0
-271 -272 -281 0
271 272 -281 0
-271 272 281 0
273 -274 282 0
-273 -274 -282 0
273 274 -282 0
-273 274 282 0
275 -276 283 0
-275 -276 -283 0
275 276 -283 0
-275 276 283 0
277 -278 284 0
-277 -278 -284 0
277 278 -284 0
-277 278 284 0
279 -280 285 0
-279 -280 -285 0
279 280 -285 0
-279 280 285 0
281 -282 286 0
-281 -282 -286 0
281 282 -286 0
-281 282 286 0
283 -284 287 0
-283 -284 -287 0
283 284 -287 0
-283 284 287 0
-285 -286 287 0
285 -286 -287 0
-285 286 -287 0
285 286 287 0
1 -3 288 0
-1 -3 -288 0
1 3 -288 0
-1 3 288 0
6 7 289 0
-6 7 -289 0
6 -7 -289 0
-6 -7 289 0
-8 -11 290 0
8 -11 -290 0
-8 11 -290 0
8 11 290 0
15 16 291 0
-15 16 -291 0
15 -16 -291 0
-15 -16 291 0
17 -18 292 0
-17 -18 -292 0
17 18 -292 0
-17 18 292 0
-19 -20 293 0
19 -20 -293 0
-19 20 -293 0
19 20 293 0
-21 -23 294 0
21 -23 -294 0
-21 23 -294 0
21 23 294 0
-24 25 295 0
24 25 -295 0
-24 -25 -295 0
24 -25 295 0
26 -27 296 0
-26 -27 -296 0
26 27 -296 0
-26 27 296 0
-28 -29 297 0
28 -29 -297 0
-28 29 -297 0
28 29 297 0
30 -33 298 0
-30 -33 -298 0
30 33 -298 0
-30 33 298 0
-34 -35 299 0
34 -35 -299 0
-34 35 -299 0
34 35 299 0
36 -40 300 0
-36 -40 -300 0
36 40 -300 0
-36 40 300 0
41 -42 301 0
-41 -42 -301 0
41 42 -301 0
-41 42 301 0
-43 -44 302 0
43 -44 -302 0
-43 44 -302 0
43 44 302 0
46 -48 303 0
-46 -48 -303 0
46 48 -303 0
-46 48 303 0
287 -288 304 0
-287 -288 -304 0
287 288 -304 0
-287 288 304 0
289 -290 305 0
-289 -290 -305 0
289 290 -305 0
-289 290 305 0
291 -292 306 0
-291 -292 -306 0
291 292 -306 0
-291 292 306 0
293 -294 307 0
-293 -294 -307 0
293 294 -307 0
-293 294 307 0
295 -296 308 0
-295 -296 -308 0
295 296 -308 0
-295 296 308 0
297 -298 309 0
-297 -298 -309 0
297 298 -309 0
-297 298 309 0
299 -300 310 0
-299 -300 -310 0
299 300 -310 0
-299 300 310 0
301 -302 311 0
-301 -302 -311 0
301 302 -311 0
-301 302 311 0
303 -304 312 0
-303 -304 -312 0
303 304 -312 0
-303 304 312 0
305 -306 313 0
-305 -306 -313 0
305 306 -313 0
-305 306 313 0
307 -308 314 0
-307 -308 -314 0
307 308 -314 0
-307 308 314 0
309 -310 315 0
-309 -310 -315 0
309 310 -315 0
-309 310 315 0
311 -312 316 0
-311 -312 -316 0
311 312 -316 0
-311 312 316 0
313 -314 317 0
-313 -314 -317 0
313 314 -317 0
-313 314 317 0
-315 -316 317 0
315 -316 -317 0
-315 316 -317 0
315 316 317 0
-2 3 318 0
2 3 -318 0
-2 -3 -318 0
2 -3 318 0
-6 -7 319 0
6 -7 -319 0
-6 7 -319 0
6 7 319 0
-8 9 320 0
8 9 -320 0
-8 -9 -320 0
8 -9 320 0
-10 14 321 0
10 14 -321 0
-10 -14 -321 0
10 -14 321 0
16 17 322 0
-16 17 -322 0
16 -17 -322 0
-16 -17 322 0
18 20 323 0
-18 20 -323 0
18 -20 -323 0
-18 -20 323 0
-22 -23 324 0
22 -23 -324 0
-22 23 -324 0
22 23 324 0
-26 -27 325 0
26 -27 -325 0
-26 27 -325 0
26 27 325 0
-28 -30 326 0
28 -30 -326 0
-28 30 -326 0
28 30 326 0
-31 34 327 0
31 34 -327 0
-31 -34 -327 0
31 -34 327 0
35 37 328 0
-35 37 -328 0
35 -37 -328 0
-35 -37 328 0
38 -39 329 0
-38 -39 -329 0
38 39 -329 0
-38 39 329 0
45 47 330 0
-45 47 -330 0
45 -47 -330 0
-45 -47 330 0
317 -318 331 0
-317 -318 -331 0
317 318 -331 0
-317 318 331 0
319 -320 332 0
-319 -320 -332 0
319 320 -332 0
-319 320 332 0
321 -322 333 0
-321 -322 -333 0
321 322 -333 0
-321 322 333 0
323 -324 334 0
-323 -324 -334 0
323 324 -334 0
-323 324 334 0
325 -326 335 0
-325 -326 -335 0
325 326 -335 0
-325 326 335 0
327 -328 336 0
-327 -328 -336 0
327 328 -336 0
-327 328 336 0
329 -330 337 0
-329 -330 -337 0
329 330 -337 0
-329 330 337 0
331 -332 338 0
-331 -332 -338 0
331 332 -338 0
-331 332 338 0
333 -334 339 0
-333 -334 -339 0
333 334 -339 0
-333 334 339 0
335 -336 340 0
-335 -336 -340 0
335 336 -340 0
-335 336 340 0
337 -338 341 0
-337 -338 -341 0
337 338 -341 0
-337 338 341 0
339 -340 342 0
-339 -340 -342 0
339 340 -342 0
-339 340 342 0
341 342 0
-341 -342 0
1 -2 343 0
-1 -2 -343 0
1 2 -343 0
-1 2 343 0
-5 -6 344 0
5 -6 -344 0
-5 6 -344 0
5 6 344 0
-7 -9 345 0
7 -9 -345 0
-7 9 -345 0
7 9 345 0
-11 -12 346 0
11 -12 -346 0
-11 12 -346 0
11 12 346 0
14 15 347 0
-14 15 -347 0
14 -15 -347 0
-14 -15 347 0
-17 -18 348 0
17 -18 -348 0
-17 18 -348 0
17 18 348 0
-19 -21 349 0
19 -21 -349 0
-19 21 -349 0
19 21 349 0
23 -25 350 0
-23 -25 -350 0
23 25 -350 0
-23 25 350 0
-29 -31 351 0
29 -31 -351 0
-29 31 -351 0
29 31 351 0
-36 38 352 0
36 38 -352 0
-36 -38 -352 0
36 -38 352 0
41 -43 353 0
-41 -43 -353 0
41 43 -353 0
-41 43 353 0
-46 48 354 0
46 48 -354 0
-46 -48 -354 0
46 -48 354 0
49 -50 355 0
-49 -50 -355 0
49 50 -355 0
-49 50 355 0
343 -344 356 0
-343 -344 -356 0
343 344 -356 0
-343 344 356 0
345 -346 357 0
-345 -346 -357 0
345 346 -357 0
-345 346 357 0
347 -348 358 0
-347 -348 -358 0
347 348 -358 0
-347 348 358 0
349 -350 359 0
-349 -350 -359 0
349 350 -359 0
-349 350 359 0
351 -352 360 0
-351 -352 -360 0
351 352 -360 0
-351 352 360 0
353 -354 361 0
-353 -354 -361 0
353 354 -361 0
-353 354 361 0
355 -356 362 0
-355 -356 -362 0
355 356 -362 0
-355 356 362 0
357 -358 363 0
-357 -358 -363 0
357 358 -363 0
-357 358 363 0
359 -360 364 0
-359 -360 -364 0
359 360 -364 0
-359 360 364 0
361 -362 365 0
-361 -362 -365 0
361 362 -365 0
-361 362 365 0
363 -364 366 0
-363 -364 -366 0
363 364 -366 0
-363 364 366 0
365 366 0
-365 -366 0
1 3 367 0
-1 3 -367 0
1 -3 -367 0
-1 -3 367 0
6 7 368 0
-6 7 -368 0
6 -7 -368 0
-6 -7 368 0
8 -9 369 0
-8 -9 -369 0
8 9 -369 0
-8 9 369 0
-10 -11 370 0
10 -11 -370 0
-10 11 -370 0
10 11 370 0
-14 16 371 0
14 16 -371 0
-14 -16 -371 0
14 -16 371 0
-18 -21 372 0
18 -21 -372 0
-18 21 -372 0
18 21 372 0
-22 24 373 0
22 24 -373 0
-22 -24 -373 0
22 -24 373 0
25 -26 374 0
-25 -26 -374 0
25 26 -374 0
-25 26 374 0
27 28 375 0
-27 28 -375 0
27 -28 -375 0
-27 -28 375 0
31 -33 376 0
-31 -33 -376 0
31 33 -376 0
-31 33 376 0
-37 -39 377 0
37 -39 -377 0
-37 39 -377 0
37 39 377 0
-42 -44 378 0
42 -44 -378 0
-42 44 -378 0
42 44 378 0
46 -49 379 0
-46 -49 -379 0
46 49 -379 0
-46 49 379 0
366 -367 380 0
-366 -367 -380 0
366 367 -380 0
-366 367 380 0
368 -369 381 0
-368 -369 -381 0
368 369 -381 0
-368 369 381 0
370 -371 382 0
-370 -371 -382 0
370 371 -382 0
-370 371 382 0
372 -373 383 0
-372 -373 -383 0
372 373 -383 0
-372 373 383 0
374 -375 384 0
-374 -375 -384 0
374 375 -384 0
-374 375 384 0
376 -377 385 0
-376 -377 -385 0
376 377 -385 0
-376 377 385 0
378 -379 386 0
-378 -379 -386 0
378 379 -386 0
-378 379 386 0
380 -381 387 0
-380 -381 -387 0
380 381 -387 0
-380 381 387 0
382 -383 388 0
-382 -383 -388 0
382 383 -388 0
-382 383 388 0
384 -385 389 0
-384 -385 -389 0
384 385 -389 0
-384 385 389 0
386 -387 390 0
-386 -387 -390 0
386 387 -390 0
-386 387 390 0
388 -389 391 0
-388 -389 -391 0
388 389 -391 0
-388 389 391 0
390 391 0
-390 -391 0
-2 3 392 0
2 3 -392 0
-2 -3 -392 0
2 -3 392 0
-5 9 393 0
5 9 -393 0
-5 -9 -393 0
5 -9 393 0
11 14 394 0
-11 14 -394 0
11 -14 -394 0
-11 -14 394 0
16 17 395 0
-16 17 -395 0
16 -17 -395 0
-16 -17 395 0
-18 -19 396 0
18 -19 -396 0
-18 19 -396 0
18 19 396 0
22 28 397 0
-22 28 -397 0
22 -28 -397 0
-22 -28 397 0
30 -31 398 0
-30 -31 -398 0
30 31 -398 0
-30 31 398 0
-37 -38 399 0
37 -38 -399 0
-37 38 -399 0
37 38 399 0
-39 44 400 0
39 44 -400 0
-39 -44 -400 0
39 -44 400 0
-48 -50 401 0
48 -50 -401 0
-48 50 -401 0
48 50 401 0
392 -393 402 0
-392 -393 -402 0
392 393 -402 0
-392 393 402 0
394 -395 403 0
-394 -395 -403 0
394 395 -403 0
-394 395 403 0
396 -397 404 0
-396 -397 -404 0
396 397 -404 0
-396 397 404 0
398 -399 405 0
-398 -399 -405 0
398 399 -405 0
-398 399 405 0
400 -401 406 0
-400 -401 -406 0
400 401 -406 0
-400 401 406 0
402 -403 407 0
-402 -403 -407 0
402 403 -407 0
-402 403 407 0
404 -405 408 0
-404 -405 -408 0
404 405 -408 0
-404 405 408 0
-406 -407 408 0
406 -407 -408 0
-406 407 -408 0
406 407 408 0
-12 409 0
-24 409 0
-12 -24 410 0
-23 409 0
-12 -23 410 0
-24 -23 410 0
-12 -24 -23 411 0
-22 412 0
-21 412 0
-22 -21 413 0
-20 412 0
-22 -20 413 0
-21 -20 413 0
-22 -21 -20 414 0
-409 415 0
-410 416 0
-411 417 0
-412 415 0
-413 416 0
-414 417 0
-409 -412 416 0
-409 -413 417 0
-409 -414 418 0
-410 -412 417 0
-410 -413 418 0
-410 -414 419 0
-411 -412 418 0
-411 -413 419 0
-411 -414 420 0
-19 421 0
-18 421 0
-19 -18 422 0
-17 421 0
-19 -17 422 0
-18 -17 422 0
-19 -18 -17 423 0
-16 424 0
-15 424 0
-16 -15 425 0
-14 424 0
-16 -14 425 0
-15 -14 425 0
-16 -15 -14 426 0
-421 427 0
-422 428 0
-423 429 0
-424 427 0
-425 428 0
-426 429 0
-421 -424 428 0
-421 -425 429 0
-421 -426 430 0
-422 -424 429 0
-422 -425 430 0
-422 -426 431 0
-423 -424 430 0
-423 -425 431 0
-423 -426 432 0
-415 433 0
-417 434 0
-419 435 0
-427 433 0
-429 434 0
-431 435 0
-415 -427 434 0
-415 -429 435 0
-415 -431 436 0
-417 -427 435 0
-417 -429 436 0
-417 -431 437 0
-419 -427 436 0
-419 -429 437 0
-419 -431 438 0
-416 439 0
-418 440 0
-420 441 0
-428 439 0
-430 440 0
-432 441 0
-416 -428 440 0
-416 -430 441 0
-416 -432 442 0
-418 -428 441 0
-418 -430 442 0
-418 -432 443 0
-420 -428 442 0
-420 -430 443 0
-420 -432 444 0
-434 445 0
-439 445 0
-434 -439 446 0
-435 447 0
-440 447 0
-435 -440 448 0
-436 449 0
-441 449 0
-436 -441 450 0
-437 451 0
-442 451 0
-437 -442 452 0
-438 453 0
-443 453 0
-438 -443 454 0
-13 455 0
-25 455 0
-13 -25 456 0
-11 455 0
-13 -11 456 0
-25 -11 456 0
-13 -25 -11 457 0
-10 458 0
-9 458 0
-10 -9 459 0
-8 458 0
-10 -8 459 0
-9 -8 459 0
-10 -9 -8 460 0
-455 461 0
-456 462 0
-457 463 0
-458 461 0
-459 462 0
-460 463 0
-455 -458 462 0
-455 -459 463 0
-455 -460 464 0
-456 -458 463 0
-456 -459 464 0
-456 -460 465 0
-457 -458 464 0
-457 -459 465 0
-457 -460 466 0
-7 467 0
-6 467 0
-7 -6 468 0
-5 467 0
-7 -5 468 0
-6 -5 468 0
-7 -6 -5 469 0
-4 470 0
-3 470 0
-4 -3 471 0
-2 470 0
-4 -2 471 0
-3 -2 471 0
-4 -3 -2 472 0
-467 473 0
-468 474 0
-469 475 0
-470 473 0
-471 474 0
-472 475 0
-467 -470 474 0
-467 -471 475 0
-467 -472 476 0
-468 -470 475 0
-468 -471 476 0
-468 -472 477 0
-469 -470 476 0
-469 -471 477 0
-469 -472 478 0
-461 479 0
-463 480 0
-465 481 0
-473 479 0
-475 480 0
-477 481 0
-461 -473 480 0
-461 -475 481 0
-461 -477 482 0
-463 -473 481 0
-463 -475 482 0
-463 -477 483 0
-465 -473 482 0
-465 -475 483 0
-465 -477 484 0
-462 485 0
-464 486 0
-466 487 0
-474 485 0
-476 486 0
-478 487 0
-462 -474 486 0
-462 -476 487 0
-462 -478 488 0
-464 -474 487 0
-464 -476 488 0
-464 -478 489 0
-466 -474 488 0
-466 -476 489 0
-466 -478 490 0
-480 491 0
-485 491 0
-480 -485 492 0
-481 493 0
-486 493 0
-481 -486 494 0
-482 495 0
-487 495 0
-482 -487 496 0
-483 497 0
-488 497 0
-483 -488 498 0
-484 499 0
-489 499 0
-484 -489 500 0
-1 501 0
-37 501 0
-1 -37 502 0
-49 501 0
-1 -49 502 0
-37 -49 502 0
-1 -37 -49 503 0
-48 504 0
-47 504 0
-48 -47 505 0
-46 504 0
-48 -46 505 0
-47 -46 505 0
-48 -47 -46 506 0
-501 507 0
-502 508 0
-503 509 0
-504 507 0
-505 508 0
-506 509 0
-501 -504 508 0
-501 -505 509 0
-501 -506 510 0
-502 -504 509 0
-502 -505 510 0
-502 -506 511 0
-503 -504 510 0
-503 -505 511 0
-503 -506 512 0
-45 513 0
-44 513 0
-45 -44 514 0
-43 513 0
-45 -43 514 0
-44 -43 514 0
-45 -44 -43 515 0
-42 516 0
-41 516 0
-42 -41 517 0
-40 516 0
-42 -40 517 0
-41 -40 517 0
-42 -41 -40 518 0
-513 519 0
-514 520 0
-515 521 0
-516 519 0
-517 520 0
-518 521 0
-513 -516 520 0
-513 -517 521 0
-513 -518 522 0
-514 -516 521 0
-514 -517 522 0
-514 -518 523 0
-515 -516 522 0
-515 -517 523 0
-515 -518 524 0
-507 525 0
-509 526 0
-511 527 0
-519 525 0
-521 526 0
-523 527 0
-507 -519 526 0
-507 -521 527 0
-507 -523 528 0
-509 -519 527 0
-509 -521 528 0
-509 -523 529 0
-511 -519 528 0
-511 -521 529 0
-511 -523 530 0
-508 531 0
-510 532 0
-512 533 0
-520 531 0
-522 532 0
-524 533 0
-508 -520 532 0
-508 -522 533 0
-508 -524 534 0
-510 -520 533 0
-510 -522 534 0
-510 -524 535 0
-512 -520 534 0
-512 -522 535 0
-512 -524 536 0
-526 537 0
-531 537 0
-526 -531 538 0
-527 539 0
-532 539 0
-527 -532 540 0
-528 541 0
-533 541 0
-528 -533 542 0
-529 543 0
-534 543 0
-529 -534 544 0
-530 545 0
-535 545 0
-530 -535 546 0
-39 547 0
-38 547 0
-39 -38 548 0
-50 547 0
-39 -50 548 0
-38 -50 548 0
-39 -38 -50 549 0
-36 550 0
-35 550 0
-36 -35 551 0
-34 550 0
-36 -34 551 0
-35 -34 551 0
-36 -35 -34 552 0
-547 553 0
-548 554 0
-549 555 0
-550 553 0
-551 554 0
-552 555 0
-547 -550 554 0
-547 -551 555 0
-547 -552 556 0
-548 -550 555 0
-548 -551 556 0
-548 -552 557 0
-549 -550 556 0
-549 -551 557 0
-549 -552 558 0
-33 559 0
-32 559 0
-33 -32 560 0
-31 559 0
-33 -31 560 0
-32 -31 560 0
-33 -32 -31 561 0
-30 562 0
-29 562 0
-30 -29 563 0
-28 564 0
-27 564 0
-28 -27 565 0
-26 564 0
-28 -26 565 0
-27 -26 565 0
-28 -27 -26 566 0
-562 567 0
-563 568 0
-564 567 0
-565 568 0
-566 569 0
-562 -564 568 0
-562 -565 569 0
-562 -566 570 0
-563 -564 569 0
-563 -565 570 0
-563 -566 571 0
-559 572 0
-560 573 0
-561 574 0
-567 572 0
-568 573 0
-569 574 0
-570 575 0
-571 576 0
-559 -567 573 0
-559 -568 574 0
-559 -569 575 0
-559 -570 576 0
-559 -571 577 0
-560 -567 574 0
-560 -568 575 0
-560 -569 576 0
-560 -570 577 0
-560 -571 578 0
-561 -567 575 0
-561 -568 576 0
-561 -569 577 0
-561 -570 578 0
-561 -571 579 0
-553 580 0
-555 581 0
-557 582 0
-572 580 0
-574 581 0
-576 582 0
-578 583 0
-553 -572 581 0
-553 -574 582 0
-553 -576 583 0
-553 -578 584 0
-555 -572 582 0
-555 -574 583 0
-555 -576 584 0
-555 -578 585 0
-557 -572 583 0
-557 -574 584 0
-557 -576 585 0
-557 -578 586 0
-554 587 0
-556 588 0
-558 589 0
-573 587 0
-575 588 0
-577 589 0
-579 590 0
-554 -573 588 0
-554 -575 589 0
-554 -577 590 0
-554 -579 591 0
-556 -573 589 0
-556 -575 590 0
-556 -577 591 0
-556 -579 592 0
-558 -573 590 0
-558 -575 591 0
-558 -577 592 0
-558 -579 593 0
-581 594 0
-587 594 0
-581 -587 595 0
-582 596 0
-588 596 0
-582 -588 597 0
-583 598 0
-589 598 0
-583 -589 599 0
-584 600 0
-590 600 0
-584 -590 601 0
-585 602 0
-591 602 0
-585 -591 603 0
-586 604 0
-592 604 0
-586 -592 605 0
-525 606 0
-540 607 0
-544 608 0
-580 606 0
-597 607 0
-601 608 0
-605 609 0
-525 -580 607 0
-525 -597 608 0
-525 -601 609 0
-525 -605 610 0
-540 -580 608 0
-540 -597 609 0
-540 -601 610 0
-540 -605 611 0
-544 -580 609 0
-544 -597 610 0
-544 -601 611 0
-538 612 0
-542 613 0
-546 614 0
-595 612 0
-599 613 0
-603 614 0
-538 -595 613 0
-538 -599 614 0
-538 -603 615 0
-542 -595 614 0
-542 -599 615 0
-542 -603 616 0
-546 -595 615 0
-546 -599 616 0
-607 617 0
-612 617 0
-607 -612 618 0
-608 619 0
-613 619 0
-608 -613 620 0
-609 621 0
-614 621 0
-609 -614 622 0
-610 623 0
-615 623 0
-610 -615 624 0
-611 625 0
-616 625 0
-611 -616 626 0
-537 627 0
-541 628 0
-545 629 0
-594 627 0
-598 628 0
-602 629 0
-593 630 0
-537 -594 628 0
-537 -598 629 0
-537 -602 630 0
-537 -593 631 0
-541 -594 629 0
-541 -598 630 0
-541 -602 631 0
-541 -593 632 0
-545 -594 630 0
-545 -598 631 0
-545 -602 632 0
-539 633 0
-543 634 0
-536 635 0
-596 633 0
-600 634 0
-604 635 0
-539 -596 634 0
-539 -600 635 0
-539 -604 636 0
-543 -596 635 0
-543 -600 636 0
-543 -604 637 0
-536 -596 636 0
-536 -600 637 0
-628 638 0
-633 638 0
-628 -633 639 0
-629 640 0
-634 640 0
-629 -634 641 0
-630 642 0
-635 642 0
-630 -635 643 0
-631 644 0
-636 644 0
-631 -636 645 0
-632 646 0
-637 646 0
-617 647 0
-627 647 0
-617 -627 648 0
-618 649 0
-638 649 0
-618 -638 650 0
-619 651 0
-639 651 0
-619 -639 652 0
-620 653 0
-640 653 0
-620 -640 654 0
-621 655 0
-641 655 0
-621 -641 656 0
-622 657 0
-642 657 0
-622 -642 658 0
-623 659 0
-643 659 0
-623 -643 660 0
-624 661 0
-644 661 0
-624 -644 662 0
-625 663 0
-645 663 0
-625 -645 664 0
-626 665 0
-646 665 0
-626 -646 666 0
-479 667 0
-494 668 0
-498 669 0
-606 667 0
-650 668 0
-654 669 0
-658 670 0
-662 671 0
-666 672 0
-479 -606 668 0
-479 -650 669 0
-479 -654 670 0
-479 -658 671 0
-479 -662 672 0
-494 -606 669 0
-494 -650 670 0
-494 -654 671 0
-494 -658 672 0
-498 -606 670 0
-498 -650 671 0
-498 -654 672 0
-492 673 0
-496 674 0
-500 675 0
-648 673 0
-652 674 0
-656 675 0
-660 676 0
-664 677 0
-492 -648 674 0
-492 -652 675 0
-492 -656 676 0
-492 -660 677 0
-496 -648 675 0
-496 -652 676 0
-496 -656 677 0
-500 -648 676 0
-500 -652 677 0
-668 678 0
-673 678 0
-668 -673 679 0
-669 680 0
-674 680 0
-669 -674 681 0
-670 682 0
-675 682 0
-670 -675 683 0
-671 684 0
-676 684 0
-671 -676 685 0
-672 686 0
-677 686 0
-672 -677 687 0
-491 688 0
-495 689 0
-499 690 0
-647 688 0
-651 689 0
-655 690 0
-659 691 0
-663 692 0
-491 -647 689 0
-491 -651 690 0
-491 -655 691 0
-491 -659 692 0
-491 -663 693 0
-495 -647 690 0
-495 -651 691 0
-495 -655 692 0
-495 -659 693 0
-499 -647 691 0
-499 -651 692 0
-499 -655 693 0
-493 694 0
-497 695 0
-490 696 0
-649 694 0
-653 695 0
-657 696 0
-661 697 0
-665 698 0
-493 -649 695 0
-493 -653 696 0
-493 -657 697 0
-493 -661 698 0
-497 -649 696 0
-497 -653 697 0
-497 -657 698 0
-490 -649 697 0
-490 -653 698 0
-689 699 0
-694 699 0
-689 -694 700 0
-690 701 0
-695 701 0
-690 -695 702 0
-691 703 0
-696 703 0
-691 -696 704 0
-692 705 0
-697 705 0
-692 -697 706 0
-693 707 0
-698 707 0
-678 708 0
-688 708 0
-678 -688 709 0
-679 710 0
-699 710 0
-679 -699 711 0
-680 712 0
-700 712 0
-680 -700 713 0
-681 714 0
-701 714 0
-681 -701 715 0
-682 716 0
-702 716 0
-682 -702 717 0
-683 718 0
-703 718 0
-683 -703 719 0
-684 720 0
-704 720 0
-684 -704 721 0
-685 722 0
-705 722 0
-685 -705 723 0
-686 724 0
-706 724 0
-686 -706 725 0
-687 726 0
-707 726 0
-687 -707 727 0
-433 728 0
-448 729 0
-452 730 0
-667 728 0
-711 729 0
-715 730 0
-719 731 0
-723 732 0
-727 733 0
-433 -667 729 0
-433 -711 730 0
-433 -715 731 0
-433 -719 732 0
-433 -723 733 0
-448 -667 730 0
-448 -711 731 0
-448 -715 732 0
-448 -719 733 0
-452 -667 731 0
-452 -711 732 0
-452 -715 733 0
-446 734 0
-450 735 0
-454 736 0
-709 734 0
-713 735 0
-717 736 0
-721 737 0
-725 738 0
-446 -709 735 0
-446 -713 736 0
-446 -717 737 0
-446 -721 738 0
-450 -709 736 0
-450 -713 737 0
-450 -717 738 0
-454 -709 737 0
-454 -713 738 0
-729 739 0
-734 739 0
-729 -734 740 0
-730 741 0
-735 741 0
-730 -735 742 0
-731 743 0
-736 743 0
-731 -736 744 0
-732 745 0
-737 745 0
-732 -737 746 0
-733 747 0
-738 747 0
-733 -738 748 0
-445 749 0
-449 750 0
-453 751 0
-708 749 0
-712 750 0
-716 751 0
-720 752 0
-724 753 0
-445 -708 750 0
-445 -712 751 0
-445 -716 752 0
-445 -720 753 0
-445 -724 754 0
-449 -708 751 0
-449 -712 752 0
-449 -716 753 0
-449 -720 754 0
-453 -708 752 0
-453 -712 753 0
-453 -716 754 0
-447 755 0
-451 756 0
-444 757 0
-710 755 0
-714 756 0
-718 757 0
-722 758 0
-726 759 0
-447 -710 756 0
-447 -714 757 0
-447 -718 758 0
-447 -722 759 0
-451 -710 757 0
-451 -714 758 0
-451 -718 759 0
-444 -710 758 0
-444 -714 759 0
-750 760 0
-755 760 0
-750 -755 761 0
-751 762 0
-756 762 0
-751 -756 763 0
-752 764 0
-757 764 0
-752 -757 765 0
-753 766 0
-758 766 0
-753 -758 767 0
-754 768 0
-759 768 0
-739 769 0
-749 769 0
-739 -749 770 0
-740 771 0
-760 771 0
-740 -760 772 0
-741 773 0
-761 773 0
-741 -761 774 0
-742 775 0
-762 775 0
-742 -762 776 0
-743 777 0
-763 777 0
-743 -763 778 0
-744 779 0
-764 779 0
-744 -764 780 0
-745 781 0
-765 781 0
-745 -765 782 0
-746 783 0
-766 783 0
-746 -766 784 0
-747 785 0
-767 785 0
-747 -767 786 0
-748 787 0
-768 787 0
-748 -768 788 0
-788 0
